detailed-output/inst-7-735527639.dzn

A = 2;
T = 9;
X = 6;
Y = 6;
Z = 2;
building = array2d(0..5, 0..5,
                   [0, 0, 0, 0, 0, 0, 0, 0, 0, 0, 0, 0, 0, 1, 0, 0, 0, 0, 0, 1, 0, 0, 0, 0, 0, 0, 0, 0, 0, 0,
                    0, 0, 0, 0, 0, 0]);
