experiments/submission_essence_discrim/detailed-output/inst-7-735527639.param
language Essence 1.3

letting class be function(1 --> 1, 2 --> 1, 3 --> 1, 4 --> 1, 5 --> 2, 6 --> 1, 7 --> 2, 8 --> 1, 9 --> 2)
letting deck_length be 46
letting deck_width be 18
letting length be function(1 --> 14, 2 --> 1, 3 --> 1, 4 --> 1, 5 --> 1, 6 --> 1, 7 --> 1, 8 --> 1, 9 --> 1)
letting n_classes be 2
letting n_containers be 9
letting separation be function({1, 2} --> 44)
letting width be function(1 --> 13, 2 --> 15, 3 --> 4, 4 --> 7, 5 --> 3, 6 --> 1, 7 --> 1, 8 --> 1, 9 --> 1)
